
%FILE DATA:	Soccer Computational Problem for MiniZinc Models	%
%AUTHOR:	Jack Wall	%
%CONTACT:  	116397063@umail.ucc.ie			%
%LAST UPDATE:	03/03/2020, 12:08:00						%
%DESCRIPTION: 	24 games played with 6 games left				%


n=6; %number of teams

%Games to play
games=[|2,6|3,2|5,3|1,4|6,3|4,2|];

%Initial points
iPoints=[13,10,2,13,12,16];

%POSITION CONSTRAINTS
% [|teamID, operator, position|...]
% operators index:
%  1 for =  operator
%  2 for >  operator
%  3 for >= operator
%  4 for <  operator
%  5 for <= operator
positionConstraints=[|6,1,1|2,1,2|1,3,3|5,5,4|];